min:x1+x2+x3+x4+x5+x6+x7+x8+x9+x10+x11+x12+x13+x14+x15+x16+x17+x18+x19+x20+x21+x22+x23+x24+x25+x26+x27+x28+x29+x30;
    A1+B1=1;
    A2+B2=1;
    A3+B3=1;
    A4+B4=1;
    A5+B5=1;
    A6+B6=1;
    A7+B7=1;
    A8+B8=1;
    A9+B9=1;
    A10+B10=1;
    A11+B11=1;
    A12+B12=1;
    A13+B13=1;
    A14+B14=1;
    A15+B15=1;
    A16+B16=1;
    A17+B17=1;
    A18+B18=1;
    A19+B19=1;
    A20+B20=1;
    A21+B21=1;
    A22+B22=1;
    A23+B23=1;
    A24+B24=1;
    A25+B25=1;
    A26+B26=1;
    A27+B27=1;
    A28+B28=1;
    A29+B29=1;
    A30+B30=1;
    A31+B31=1;
    A32+B32=1;
    A33+B33=1;
    A34+B34=1;
    A35+B35=1;
    A36+B36=1;
    A37+B37=1;
    A38+B38=1;
    A39+B39=1;
    A40+B40=1;
    A41+B41=1;
    A42+B42=1;
    A43+B43=1;
    A44+B44=1;
    A45+B45=1;
    A46+B46=1;
    A47+B47=1;
    A48+B48=1;
    A49+B49=1;
    A50+B50=1;
    A51+B51=1;
    A52+B52=1;
    A53+B53=1;
    A54+B54=1;
    A55+B55=1;
    A56+B56=1;
    A57+B57=1;
    A58+B58=1;
    A59+B59=1;
    A60+B60=1;
    A61+B61=1;
    A62+B62=1;
    A63+B63=1;
    A64+B64=1;
    A65+B65=1;
    A66+B66=1;
    A67+B67=1;
    A68+B68=1;
    A69+B69=1;
    A70+B70=1;
    A71+B71=1;
    A72+B72=1;
    A73+B73=1;
    A74+B74=1;
    A75+B75=1;
    A76+B76=1;
    A1+A2+A3+A4+A5+A6+A7+6 x1>=6;
    A8+A9+A10+A11+A12+4 x2>=4;
    A13+A14+A15+A16+A17+3 x3>=3;
    B1+A18+A19+A20+A21+5 x4>=5;
    A22+A23+A24+A25+2 x5>=2;
    A26+A27+A28+A29+A30+3 x6>=3;
    B18+B22+A31+A32+A33+2 x7>=2;
    B26+1 x8>=1;
    A34+A35+A36+A37+A38+A39+2 x9>=2;
    B2+B23+A40+A41+A42+A43+A44+3 x10>=3;
    B34+A45+2 x11>=2;
    B8+B35+B40+A46+3 x12>=3;
    A47+A48+A49+A50+1 x13>=1;
    B19+B24+B27+A51+A52+A53+4 x14>=4;
    B9+B36+A54+A55+1 x15>=1;
    B3+B25+B37+A56+A57+A58+1 x16>=1;
    B31+A59+A60+A61+A62+2 x17>=2;
    B28+A63+A64+3 x18>=3;
    B4+B47+B59+B63+A65+1 x19>=1;
    B13+B32+B38+A66+A67+1 x20>=1;
    B14+B41+B45+B54+B56+A68+A69+A70+A71+A72+7 x21>=7;
    B42+B57+B60+B68+A73+4 x22>=4;
    B33+B65+B66+2 x23>=2;
    B5+B29+2 x24>=2;
    B10+B15+B30+B51+B58+B61+B69+6 x25>=6;
    B52+B67+B70+A74+1 x26>=1;
    B11+B39+B53+B62+A75+4 x27>=4;
    B6+B16+B20+B43+B48+B71+1 x28>=1;
    B12+B17+B44+B49+B55+B72+B73+B74+B75+A76+6 x29>=6;
    B7+B21+B46+B50+B64+B76+3 x30>=3;
bin A1,B1,A2,B2,A3,B3,A4,B4,A5,B5,A6,B6,A7,B7,A8,B8,A9,B9,A10,B10,A11,B11,A12,B12,A13,B13,A14,B14,A15,B15,A16,B16,A17,B17,A18,B18,A19,B19,A20,B20,A21,B21,A22,B22,A23,B23,A24,B24,A25,B25,A26,B26,A27,B27,A28,B28,A29,B29,A30,B30,A31,B31,A32,B32,A33,B33,A34,B34,A35,B35,A36,B36,A37,B37,A38,B38,A39,B39,A40,B40,A41,B41,A42,B42,A43,B43,A44,B44,A45,B45,A46,B46,A47,B47,A48,B48,A49,B49,A50,B50,A51,B51,A52,B52,A53,B53,A54,B54,A55,B55,A56,B56,A57,B57,A58,B58,A59,B59,A60,B60,A61,B61,A62,B62,A63,B63,A64,B64,A65,B65,A66,B66,A67,B67,A68,B68,A69,B69,A70,B70,A71,B71,A72,B72,A73,B73,A74,B74,A75,B75,A76,B76,x1,x2,x3,x4,x5,x6,x7,x8,x9,x10,x11,x12,x13,x14,x15,x16,x17,x18,x19,x20,x21,x22,x23,x24,x25,x26,x27,x28,x29,x30;